
Gurobi 11.0.3 (linux64) logging started Sat Nov 23 16:49:55 2024

Set parameter LogFile to value "/home/yihong/Coding/OR_SUC/SUC_results_bigM100000_thread4/case24_ieee_rts_theta0.5_epsilon0.025_gurobi_seed1090000_num_gen100_N_WDR50_load_scaling_factor1_proposed_T24quadra_cost.txt"
Set parameter TimeLimit to value 3600
Gurobi Optimizer version 11.0.3 build v11.0.3rc0 (linux64 - "Ubuntu 20.04.6 LTS")

CPU model: AMD EPYC 7532 32-Core Processor, instruction set [SSE2|AVX|AVX2]
Thread count: 64 physical cores, 128 logical processors, using up to 4 threads

Optimize a model with 50020 rows, 29811 columns and 506326 nonzeros
Model fingerprint: 0x31de5e3d
Model has 2400 quadratic constraints
Variable types: 27411 continuous, 2400 integer (2400 binary)
Coefficient statistics:
  Matrix range     [3e-04, 2e+03]
  QMatrix range    [2e-03, 8e-03]
  QLMatrix range   [2e-03, 6e+01]
  Objective range  [1e+00, 1e+00]
  Bounds range     [1e+00, 1e+00]
  RHS range        [1e+00, 9e+03]
Presolve removed 40330 rows and 12925 columns
Presolve time: 0.19s
Presolved: 9690 rows, 16886 columns, 52174 nonzeros
Presolved model has 2400 quadratic constraint(s)
Variable types: 14486 continuous, 2400 integer (2400 binary)

Root relaxation: objective 7.224289e+04, 7681 iterations, 0.16 seconds (0.22 work units)

    Nodes    |    Current Node    |     Objective Bounds      |     Work
 Expl Unexpl |  Obj  Depth IntInf | Incumbent    BestBd   Gap | It/Node Time

     0     0 72242.8881    0    -          - 72242.8881      -     -    0s
     0     0 394176.220    0  802          - 394176.220      -     -    0s
     0     0 651826.465    0  854          - 651826.465      -     -    1s
     0     0 651877.964    0  385          - 651877.964      -     -    1s
     0     0 652155.793    0  201          - 652155.793      -     -    1s
     0     0 652160.297    0  200          - 652160.297      -     -    1s
     0     0 652162.738    0  200          - 652162.738      -     -    1s
     0     2 652162.738    0  200          - 652162.738      -     -    2s
H  239   327                    652220.49873 652166.248  0.01%  10.6    3s
*  239   327              92    652220.49873 652166.248  0.01%  10.6    3s

Cutting planes:
  Gomory: 115
  Implied bound: 390
  MIR: 100
  Flow cover: 399
  RLT: 265

Explored 342 nodes (24299 simplex iterations) in 4.57 seconds (5.81 work units)
Thread count was 4 (of 128 available processors)

Solution count 2: 652220 652220 

Optimal solution found (tolerance 1.00e-03)
Warning: max constraint violation (6.5261e-09) exceeds tolerance
Best objective 6.522204968178e+05, best bound 6.521662483925e+05, gap 0.0083%
